c Sudoku solution
p cnf 729 0
114 0
122 0
181 0
196 0
211 0
263 0
338 0
344 0
397 0
529 0
545 0
551 0
361 0
626 0
671 0
735 0
756 0
246 0
316 0
778 0
799 0
876 0
936 0
887 0
917 0
819 0
921 0
828 0
741 0
767 0
891 0
431 0
964 0
834 0
712 0
723 0
784 0
325 0
133 0
227 0
239 0
424 0
654 0
975 0
179 0
359 0
252 0
949 0
958 0
274 0
594 0
993 0
982 0
383 0
372 0
285 0
298 0
473 0
577 0
457 0
643 0
513 0
532 0
637 0
842 0
865 0
853 0
448 0
566 0
486 0
588 0
689 0
415 0
618 0
492 0
695 0
469 0
662 0
147 0
155 0
168 0
